outputs/case_475.model.txt
legal_compliance_training_hours = 30
agent_or_notary = True
guarantee_insurance_purchased = False
pre_service_training_hours = 32
bank_permission_granted = False
liability_insurance_purchased = True
broker_exercise_duty_of_care = False
written_report_provided = False
broker = False
fee_charged = False
fee_disclosed = False
bank_operate_as_broker = False
broker_fulfill_fidelity = False
bank_operate_as_agent = False
agent_pre_service_training = True
bank_permission_for_agent_or_broker = True
license_permitted = True
broker_duty_of_care_and_fidelity = False
license_and_bond_and_insurance = True
insurance_purchased = True
penalty = False
bond_deposited = True
license_issued = True
broker_provide_written_report_and_disclose_fee = False
pre_service_training_passed = True
insurance_type_correct = True
legal_compliance_training = True